p tw 25 63
0 1
0 15
0 3
0 17
0 18
0 10
0 21
0 16
0 23
1 3
1 9
2 3
2 20
2 15
2 9
2 11
3 13
3 24
3 15
3 17
4 5
4 8
4 19
4 22
5 19
5 22
5 24
5 16
5 11
6 7
6 8
6 12
7 8
7 22
7 9
7 16
7 19
8 11
8 14
8 13
8 21
8 20
8 18
8 23
8 9
9 10
9 17
10 12
10 24
10 20
10 13
10 17
11 18
12 24
13 14
13 23
14 16
14 17
15 17
15 23
15 22
18 19
21 23
